m=9;
gx=[1, 1, 1, 2, 2, 2, 3, 3, 3];
gy=[1, 2, 3, 1, 2, 3, 1, 2, 3];
N=8;
tx=[0, 1, 1, 1, 1, 2, 1, 2];
ty=[1, 0, 1, -1, 2, 1, -2, -1];
tk=[2, 2, 2, 2, 1, 1, 1, 1];
r90=[7, 4, 1, 8, 5, 2, 9, 6, 3];
r180=[9, 8, 7, 6, 5, 4, 3, 2, 1];
r270=[3, 6, 9, 2, 5, 8, 1, 4, 7];
reflect=[3, 2, 1, 6, 5, 4, 9, 8, 7];
r180_reflect=[7, 8, 9, 4, 5, 6, 1, 2, 3];
r270_reflect=[9, 6, 3, 8, 5, 2, 7, 4, 1];
d_lb=18;
d_ub=24;